c
c This is glucose 2.1 --  based on MiniSAT (Many thanks to MiniSAT team)
c
c WARNING: for repeatability, setting FPU to use double precision
c ========================================[ Problem Statistics ]===========================================
c |                                                                                                       |
c |  Number of variables:        199970                                                                   |
c |  Number of clauses:          443357                                                                   |
c |  Parse time:                   0.14 s                                                                 |
c |                                                                                                       |
c ========================================[ MAGIC CONSTANTS ]==============================================
c | Constants are supposed to work well together :-)                                                      |
c | however, if you find better choices, please let us known...                                           |
c |-------------------------------------------------------------------------------------------------------|
c |                                |                                |                                     |
c | - Restarts:                    | - Reduce Clause DB:            | - Minimize Asserting:               |
c |   * LBD Queue    :     50      |   * First     :   4000         |    * size <  30                     |
c |   * Trail  Queue :   5000      |   * Inc       :    300         |    * lbd  <   6                     |
c |   * K            :   0.80      |   * Special   :   1000         |                                     |
c |   * R            :   1.40      |   * Protected :  (lbd)< 30     |                                     |
c |                                |                                |                                     |
c ==================================[ Search Statistics (every  10000 conflicts) ]=========================
c |                                                                                                       |
c |          RESTARTS           |          ORIGINAL         |              LEARNT              | Progress |
c |       NB   Blocked  Avg Cfc |    Vars  Clauses Literals |   Red   Learnts    LBD2  Removed |          |
c =========================================================================================================
c |       39         0      256 |  106920   431357   969634 |     1     8006       89     1993 | 46.532 % |
c |       79         0      253 |  106920   431357   969634 |     3     6960      198    13039 | 46.532 % |
c |      112         0      267 |  106920   431357   969634 |     3    16960      269    13039 | 46.532 % |
c |      127         0      314 |  106920   431357   969634 |     4    17683      295    22316 | 46.532 % |
c |      183         0      273 |  106920   431357   969634 |     5    15852      381    34147 | 46.532 % |
c |      224         0      267 |  106920   431357   969634 |     5    25852      446    34147 | 46.532 % |
c |      282         0      248 |  106920   431357   969634 |     6    21450      492    48549 | 46.532 % |
c |      332         0      240 |  106920   431357   969634 |     6    31450      550    48549 | 46.532 % |
c |      391         0      230 |  106920   431357   969634 |     7    24432      597    65567 | 46.532 % |
c |      445         0      224 |  106920   431357   969634 |     7    34432      631    65567 | 46.532 % |
c |      492         0      223 |  106920   431357   969634 |     8    24834      651    85165 | 46.532 % |
c |      530         0      226 |  106920   431357   969634 |     8    34834      682    85165 | 46.532 % |
c |      573         0      226 |  106920   431357   969634 |     9    22642      725   107357 | 46.532 % |
c |      619         0      226 |  106920   431357   969634 |     9    32642      753   107357 | 46.532 % |
c |      690         0      217 |  106920   431357   969634 |     9    42642      792   107357 | 46.532 % |
c |      732         0      218 |  106920   431357   969634 |    10    27834      820   132165 | 46.532 % |
c |      792         0      214 |  106920   431357   969634 |    10    37834      838   132165 | 46.532 % |
c |      842         0      213 |  106920   431357   969634 |    10    47834      869   132165 | 46.532 % |
c |      881         0      215 |  106920   431357   969634 |    11    30423      895   159576 | 46.532 % |
c |      941         0      212 |  106920   431357   969634 |    11    40423      908   159576 | 46.532 % |
c |      997         0      210 |  106920   431357   969634 |    11    50423      926   159576 | 46.532 % |
c |     1053         0      208 |  106920   431357   969634 |    12    30419      940   189580 | 46.532 % |
c |     1100         0      209 |  106920   431357   969634 |    12    40419      959   189580 | 46.532 % |
c |     1145         0      209 |  106920   431357   969634 |    12    50419      977   189580 | 46.532 % |
c |     1193         0      209 |  106920   431357   969634 |    12    60419      992   189580 | 46.532 % |
c |     1251         0      207 |  106920   431357   969634 |    13    37818     1014   222181 | 46.532 % |
c |     1293         0      208 |  106920   431357   969634 |    13    47818     1029   222181 | 46.532 % |
c |     1348         0      207 |  106920   431357   969634 |    13    57818     1052   222181 | 46.532 % |
c |     1387         0      209 |  106920   431357   969634 |    13    67818     1068   222181 | 46.532 % |
c |     1442         0      208 |  106920   431357   969634 |    14    42625     1083   257374 | 46.532 % |
c |     1488         0      208 |  106920   431357   969634 |    14    52625     1101   257374 | 46.532 % |
c |     1549         0      206 |  106920   431357   969634 |    14    62625     1121   257374 | 46.532 % |
c |     1602         0      205 |  106920   431357   969634 |    14    72625     1132   257374 | 46.532 % |
c |     1651         0      205 |  106920   431357   969634 |    15    44839     1144   295160 | 46.532 % |
c |     1716         0      203 |  106920   431357   969634 |    15    54839     1157   295160 | 46.532 % |
c |     1795         0      200 |  106920   431357   969634 |    15    64839     1174   295160 | 46.532 % |
c |     1856         0      199 |  106920   431357   969634 |    15    74839     1194   295160 | 46.532 % |
c |     1912         0      198 |  106920   431357   969634 |    16    44435     1212   335564 | 46.532 % |
c |     1961         0      198 |  106920   431357   969634 |    16    54435     1234   335564 | 46.532 % |
c |     1999         0      200 |  106920   431357   969634 |    16    64435     1249   335564 | 46.532 % |
c |     2057         0      199 |  106920   431357   969634 |    16    74435     1258   335564 | 46.532 % |
c |     2110         0      199 |  106920   431357   969634 |    16    84435     1271   335564 | 46.532 % |
c |     2178         0      197 |  106920   431357   969634 |    17    51433     1281   378566 | 46.532 % |
c |     2229         0      197 |  106920   431357   969634 |    17    61433     1289   378566 | 46.532 % |
c |     2278         0      197 |  106920   431357   969634 |    17    71433     1296   378566 | 46.532 % |
c |     2326         0      197 |  106920   431357   969634 |    17    81433     1305   378566 | 46.532 % |
c |     2395         0      196 |  106920   431357   969634 |    18    45822     1319   424177 | 46.532 % |
c |     2438         0      196 |  106920   431357   969634 |    18    55822     1339   424177 | 46.532 % |
c |     2496         0      196 |  106920   431357   969634 |    18    65822     1360   424177 | 46.532 % |
c |     2544         0      196 |  106920   431357   969634 |    18    75822     1379   424177 | 46.532 % |
c |     2574         0      198 |  106920   431357   969634 |    18    85822     1401   424177 | 46.532 % |
c |     2646         0      196 |  106920   431357   969634 |    18    95822     1420   424177 | 46.532 % |
c |     2688         0      197 |  106920   431357   969634 |    19    57638     1434   472361 | 46.532 % |
c |     2753         0      196 |  106920   431357   969634 |    19    67638     1443   472361 | 46.532 % |
c |     2786         0      197 |  106920   431357   969634 |    19    77638     1451   472361 | 46.532 % |
c |     2839         0      197 |  106920   431357   969634 |    19    87638     1475   472361 | 46.532 % |
c |     2898         0      196 |  106920   431357   969634 |    19    97638     1502   472361 | 46.532 % |
c |     2939         0      197 |  106920   431357   969634 |    20    56819     1508   523180 | 46.532 % |
c |     2990         0      197 |  106920   431357   969634 |    20    66819     1517   523180 | 46.532 % |
c |     3033         0      197 |  106920   431357   969634 |    20    76819     1535   523180 | 46.532 % |
c |     3108         0      196 |  106920   431357   969634 |    20    86819     1542   523180 | 46.532 % |
c |     3164         0      195 |  106920   431357   969634 |    20    96819     1563   523180 | 46.532 % |
c |     3231         0      194 |  106920   431357   969634 |    20   106819     1576   523180 | 46.532 % |
c |     3288         0      194 |  106920   431357   969634 |    21    63448     1589   576551 | 46.532 % |
c |     3355         0      193 |  106920   431357   969634 |    21    73448     1599   576551 | 46.532 % |
c |     3405         0      193 |  106920   431357   969634 |    21    83448     1611   576551 | 46.532 % |
c |     3455         0      193 |  106920   431357   969634 |    21    93448     1621   576551 | 46.532 % |
c |     3498         0      194 |  106920   431357   969634 |    21   103448     1630   576551 | 46.532 % |
c |     3573         0      193 |  106920   431357   969634 |    22    57424     1641   632575 | 46.532 % |
c |     3624         0      193 |  106920   431357   969634 |    22    67424     1657   632575 | 46.532 % |
c |     3663         0      193 |  106920   431357   969634 |    22    77424     1670   632575 | 46.532 % |
c |     3697         0      194 |  106920   431357   969634 |    22    87424     1684   632575 | 46.532 % |
c |     3730         0      195 |  106920   431357   969634 |    22    97424     1692   632575 | 46.532 % |
c |     3788         1      195 |  106920   431357   969634 |    22   107424     1698   632575 | 46.532 % |
c |     3836         1      195 |  106920   431357   969634 |    23    58841     1710   691158 | 46.532 % |
c |     3887         1      195 |  106920   431357   969634 |    23    68841     1716   691158 | 46.532 % |
c |     3939         1      195 |  106920   431357   969634 |    23    78841     1732   691158 | 46.532 % |
c |     4002         1      194 |  106920   431357   969634 |    23    88841     1741   691158 | 46.532 % |
c |     4033         1      195 |  106920   431357   969634 |    23    98841     1751   691158 | 46.532 % |
c |     4063         1      196 |  106920   431357   969634 |    23   108841     1762   691158 | 46.532 % |
c |     4098         1      197 |  106920   431357   969634 |    23   118841     1783   691158 | 46.532 % |
c |     4139         1      198 |  106920   431357   969634 |    24    68181     1787   751818 | 46.532 % |
c |     4169         1      199 |  106920   431357   969634 |    24    78181     1798   751818 | 46.532 % |
c |     4196         2      200 |  106920   431357   969634 |    24    88181     1809   751818 | 46.532 % |
c |     4244         2      200 |  106920   431357   969634 |    24    98181     1812   751818 | 46.532 % |
c |     4295         2      200 |  106920   431357   969634 |    24   108181     1831   751818 | 46.532 % |
c |     4354         3      199 |  106920   431357   969634 |    24   118181     1837   751818 | 46.532 % |
c |     4404         3      199 |  106920   431357   969634 |    24   128181     1845   751818 | 46.532 % |
c |     4450         3      200 |  106920   431357   969634 |    25    74918     1853   815081 | 46.532 % |
c |     4480         3      200 |  106856   431293   969442 |    25    74809     1867   815081 | 46.564 % |
c |     4542         3      200 |  106856   431293   969442 |    25    84809     1873   815081 | 46.564 % |
c |     4585         3      200 |  106856   431293   969442 |    25    94809     1879   815081 | 46.564 % |
c |     4661         3      199 |  106856   431293   969442 |    25   104809     1885   815081 | 46.564 % |
c |     4728         3      198 |  106851   431287   969424 |    25   114565     1896   815081 | 46.566 % |
c |     4819         3      197 |  106851   431287   969424 |    26    65153     1900   874493 | 46.566 % |
c |     4881         3      196 |  106851   431287   969424 |    26    75153     1902   874493 | 46.566 % |
c |     4982         3      194 |  106851   431287   969424 |    26    85153     1906   874493 | 46.566 % |
c |     5029         3      194 |  106363   430489   966940 |    26    93526     1932   874493 | 46.811 % |
c |     5133         3      192 |  106363   430489   966940 |    26   103526     1939   874493 | 46.811 % |
c |     5210         3      191 |  106363   430489   966940 |    26   113526     1943   874493 | 46.811 % |
c |     5301         3      190 |  106363   430489   966940 |    26   123526     1951   874493 | 46.811 % |
c |     5383         3      189 |  106363   430489   966940 |    26   133526     1956   874493 | 46.811 % |
c |     5417         3      190 |  106059   430184   966025 |    27    78246     1965   936382 | 46.963 % |
c |     5435         3      191 |  106059   430184   966025 |    27    88246     1979   936382 | 46.963 % |
c =========================================================================================================
c restarts              : 5440 (191 conflicts in avg)
c blocked restarts      : 3 (multiple: 3) 
c last block at restart : 4331
c nb ReduceDB           : 27
c nb removed Clauses    : 936382
c nb learnts DL2        : 1993
c nb learnts size 2     : 1091
c nb learnts size 1     : 13
c conflicts             : 1043984        (1114 /sec)
c decisions             : 2183626        (0.00 % random) (2331 /sec)
c propagations          : 2822980756     (3013421 /sec)
c conflict literals     : 90170816       (45.04 % deleted)
c nb reduced Clauses    : 2986
c CPU time              : 936.803 s
s UNSATISFIABLE
